c ind 159 158 157 156 155 154 153 152 151 150 149 148 147 146 145 144 143 142 141 140 139 138 137 136 135 134 133 132 131 130 129 128  0
c ind 191 190 189 188 187 186 185 184 183 182 181 180 179 178 177 176 175 174 173 172 171 170 169 168 167 166 165 164 163 162 161 160  0
c ind 33 32 31 30 29 28 27 26 25 24 23 22 21 20 19 18 17 16 15 14 13 12 11 10 9 8 7 6 5 4 3 2  0
c ind 96 95 94 93 92 91 90 89 88 87 86 85 84 83 82 81 80 79 78 77 76 75 74 73 72 71 70 69 68 67 66 65  0
p cnf 500 1113
1 0
-64 0
-65 0
-66 0
-67 0
-68 0
-69 0
-70 0
-71 0
-72 0
-73 0
-74 0
-75 0
-76 0
-77 0
-78 0
-79 0
-80 0
-81 0
-82 0
-83 0
-84 0
-85 0
-86 0
-87 0
-88 0
-89 0
-90 0
-91 0
-92 0
-93 0
-94 0
-95 0
-96 0
97 0
98 0
99 0
100 0
101 0
102 0
103 0
104 0
105 0
106 0
107 0
108 0
109 0
110 0
111 0
112 0
113 0
114 0
115 0
116 0
117 0
118 0
119 0
120 0
121 0
122 0
123 0
124 0
125 0
126 0
127 0
-500 0
-2 -34 0
2 3 34 0
-3 -34 0
-4 -35 0
4 -34 35 0
-5 -36 0
5 -35 36 0
-6 -37 0
6 -36 37 0
-7 -38 0
7 -37 38 0
-8 -39 0
8 -38 39 0
-9 -40 0
9 -39 40 0
-10 -41 0
10 -40 41 0
-11 -42 0
11 -41 42 0
-12 -43 0
12 -42 43 0
-13 -44 0
13 -43 44 0
-14 -45 0
14 -44 45 0
-15 -46 0
15 -45 46 0
-16 -47 0
16 -46 47 0
-17 -48 0
17 -47 48 0
-18 -49 0
18 -48 49 0
-19 -50 0
19 -49 50 0
-20 -51 0
20 -50 51 0
-21 -52 0
21 -51 52 0
-22 -53 0
22 -52 53 0
-23 -54 0
23 -53 54 0
-24 -55 0
24 -54 55 0
-25 -56 0
25 -55 56 0
-26 -57 0
26 -56 57 0
-27 -58 0
27 -57 58 0
-28 -59 0
28 -58 59 0
-29 -60 0
29 -59 60 0
-30 -61 0
30 -60 61 0
-31 -62 0
31 -61 62 0
-32 -63 0
32 -62 63 0
33 -63 0
34 -35 0
35 -36 0
36 -37 0
37 -38 0
38 -39 0
39 -40 0
40 -41 0
41 -42 0
42 -43 0
43 -44 0
44 -45 0
45 -46 0
46 -47 0
47 -48 0
48 -49 0
49 -50 0
50 -51 0
51 -52 0
52 -53 0
53 -54 0
54 -55 0
55 -56 0
56 -57 0
57 -58 0
58 -59 0
59 -60 0
60 -61 0
61 -62 0
62 -63 0
-128 -406 -222 0
-128 406 222 0
128 -406 222 0
128 406 -222 0
-129 -255 0
-129 -223 256 0
129 -256 0
129 223 255 0
-130 -258 0
-130 -224 259 0
130 -259 0
130 224 258 0
-131 -261 0
-131 -225 262 0
131 -262 0
131 225 261 0
-132 -264 0
-132 -226 265 0
132 -265 0
132 226 264 0
-133 -267 0
-133 -227 268 0
133 -268 0
133 227 267 0
-134 -270 0
-134 -228 271 0
134 -271 0
134 228 270 0
-135 -273 0
-135 -229 274 0
135 -274 0
135 229 273 0
-136 -276 0
-136 -230 277 0
136 -277 0
136 230 276 0
-137 -279 0
-137 -231 280 0
137 -280 0
137 231 279 0
-138 -282 0
-138 -232 283 0
138 -283 0
138 232 282 0
-139 -285 0
-139 -233 286 0
139 -286 0
139 233 285 0
-140 -288 0
-140 -234 289 0
140 -289 0
140 234 288 0
-141 -291 0
-141 -235 292 0
141 -292 0
141 235 291 0
-142 -294 0
-142 -236 295 0
142 -295 0
142 236 294 0
-143 -297 0
-143 -237 298 0
143 -298 0
143 237 297 0
-144 -300 0
-144 -238 301 0
144 -301 0
144 238 300 0
-145 -303 0
-145 -239 304 0
145 -304 0
145 239 303 0
-146 -306 0
-146 -240 307 0
146 -307 0
146 240 306 0
-147 -309 0
-147 -241 310 0
147 -310 0
147 241 309 0
-148 -312 0
-148 -242 313 0
148 -313 0
148 242 312 0
-149 -315 0
-149 -243 316 0
149 -316 0
149 243 315 0
-150 -318 0
-150 -244 319 0
150 -319 0
150 244 318 0
-151 -321 0
-151 -245 322 0
151 -322 0
151 245 321 0
-152 -324 0
-152 -246 325 0
152 -325 0
152 246 324 0
-153 -327 0
-153 -247 328 0
153 -328 0
153 247 327 0
-154 -330 0
-154 -248 331 0
154 -331 0
154 248 330 0
-155 -333 0
-155 -249 334 0
155 -334 0
155 249 333 0
-156 -336 0
-156 -250 337 0
156 -337 0
156 250 336 0
-157 -339 0
-157 -252 340 0
157 -340 0
157 252 339 0
-158 -342 0
-158 -254 343 0
158 -343 0
158 254 342 0
-159 -468 0
-159 191 345 0
159 -345 0
159 -191 468 0
-160 -222 -221 0
-160 222 221 0
160 -222 221 0
160 222 -221 0
-161 -221 0
-161 -223 -220 0
-161 223 220 0
161 -220 221 0
161 -223 220 0
161 223 -220 0
-162 -220 0
-162 -224 -219 0
-162 224 219 0
162 -219 220 0
162 -224 219 0
162 224 -219 0
-163 -219 0
-163 -225 -218 0
-163 225 218 0
163 -218 219 0
163 -225 218 0
163 225 -218 0
-164 -218 0
-164 -226 -217 0
-164 226 217 0
164 -217 218 0
164 -226 217 0
164 226 -217 0
-165 -217 0
-165 -227 -216 0
-165 227 216 0
165 -216 217 0
165 -227 216 0
165 227 -216 0
-166 -216 0
-166 -228 -215 0
-166 228 215 0
166 -215 216 0
166 -228 215 0
166 228 -215 0
-167 -215 0
-167 -229 -214 0
-167 229 214 0
167 -214 215 0
167 -229 214 0
167 229 -214 0
-168 -214 0
-168 -230 -213 0
-168 230 213 0
168 -213 214 0
168 -230 213 0
168 230 -213 0
-169 -213 0
-169 -231 -212 0
-169 231 212 0
169 -212 213 0
169 -231 212 0
169 231 -212 0
-170 -212 0
-170 -232 -211 0
-170 232 211 0
170 -211 212 0
170 -232 211 0
170 232 -211 0
-171 -211 0
-171 -233 -210 0
-171 233 210 0
171 -210 211 0
171 -233 210 0
171 233 -210 0
-172 -210 0
-172 -234 -209 0
-172 234 209 0
172 -209 210 0
172 -234 209 0
172 234 -209 0
-173 -209 0
-173 -235 -208 0
-173 235 208 0
173 -208 209 0
173 -235 208 0
173 235 -208 0
-174 -208 0
-174 -236 -207 0
-174 236 207 0
174 -207 208 0
174 -236 207 0
174 236 -207 0
-175 -207 0
-175 -237 -206 0
-175 237 206 0
175 -206 207 0
175 -237 206 0
175 237 -206 0
-176 -206 0
-176 -238 -205 0
-176 238 205 0
176 -205 206 0
176 -238 205 0
176 238 -205 0
-177 -205 0
-177 -239 -204 0
-177 239 204 0
177 -204 205 0
177 -239 204 0
177 239 -204 0
-178 -204 0
-178 -240 -203 0
-178 240 203 0
178 -203 204 0
178 -240 203 0
178 240 -203 0
-179 -203 0
-179 -241 -202 0
-179 241 202 0
179 -202 203 0
179 -241 202 0
179 241 -202 0
-180 -202 0
-180 -242 -201 0
-180 242 201 0
180 -201 202 0
180 -242 201 0
180 242 -201 0
-181 -201 0
-181 -243 -200 0
-181 243 200 0
181 -200 201 0
181 -243 200 0
181 243 -200 0
-182 -200 0
-182 -244 -199 0
-182 244 199 0
182 -199 200 0
182 -244 199 0
182 244 -199 0
-183 -199 0
-183 -245 -198 0
-183 245 198 0
183 -198 199 0
183 -245 198 0
183 245 -198 0
-184 -198 0
-184 -246 -197 0
-184 246 197 0
184 -197 198 0
184 -246 197 0
184 246 -197 0
-185 -197 0
-185 -247 -196 0
-185 247 196 0
185 -196 197 0
185 -247 196 0
185 247 -196 0
-186 -196 0
-186 -248 -195 0
-186 248 195 0
186 -195 196 0
186 -248 195 0
186 248 -195 0
-187 -195 0
-187 -249 -194 0
-187 249 194 0
187 -194 195 0
187 -249 194 0
187 249 -194 0
-188 -194 0
-188 -250 193 0
-188 250 -193 0
188 193 194 0
188 -250 -193 0
188 250 193 0
-189 -251 0
-189 -192 193 0
189 -193 0
189 192 251 0
-190 -253 0
-190 -191 192 0
190 -192 0
190 191 253 0
-191 -253 0
-191 -345 0
191 -192 0
191 -468 0
-192 -251 0
-192 -254 0
192 -193 0
192 253 254 0
-193 -194 0
-193 -252 0
193 251 252 0
194 -195 0
195 -196 0
196 -197 0
197 -198 0
198 -199 0
199 -200 0
200 -201 0
201 -202 0
202 -203 0
203 -204 0
204 -205 0
205 -206 0
206 -207 0
207 -208 0
208 -209 0
209 -210 0
210 -211 0
211 -212 0
212 -213 0
213 -214 0
214 -215 0
215 -216 0
216 -217 0
217 -218 0
218 -219 0
219 -220 0
220 -221 0
-223 -255 0
223 -256 0
-224 -258 0
224 -259 0
-225 -261 0
225 -262 0
-226 -264 0
226 -265 0
-227 -267 0
227 -268 0
-228 -270 0
228 -271 0
-229 -273 0
229 -274 0
-230 -276 0
230 -277 0
-231 -279 0
231 -280 0
-232 -282 0
232 -283 0
-233 -285 0
233 -286 0
-234 -288 0
234 -289 0
-235 -291 0
235 -292 0
-236 -294 0
236 -295 0
-237 -297 0
237 -298 0
-238 -300 0
238 -301 0
-239 -303 0
239 -304 0
-240 -306 0
240 -307 0
-241 -309 0
241 -310 0
-242 -312 0
242 -313 0
-243 -315 0
243 -316 0
-244 -318 0
244 -319 0
-245 -321 0
245 -322 0
-246 -324 0
246 -325 0
-247 -327 0
247 -328 0
-248 -330 0
248 -331 0
-249 -333 0
249 -334 0
-250 -336 0
250 -337 0
-251 -252 0
-252 -339 0
252 -340 0
-253 -254 0
-254 -342 0
254 -343 0
-255 -257 0
255 256 257 0
-256 -257 0
-256 -405 0
256 404 405 0
-257 -408 0
-257 403 404 0
257 -404 0
257 -403 408 0
-258 -260 0
258 259 260 0
-259 -260 0
-259 -403 0
259 402 403 0
-260 -410 0
-260 401 402 0
260 -402 0
260 -401 410 0
-261 -263 0
261 262 263 0
-262 -263 0
-262 -401 0
262 400 401 0
-263 -412 0
-263 399 400 0
263 -400 0
263 -399 412 0
-264 -266 0
264 265 266 0
-265 -266 0
-265 -399 0
265 398 399 0
-266 -414 0
-266 397 398 0
266 -398 0
266 -397 414 0
-267 -269 0
267 268 269 0
-268 -269 0
-268 -397 0
268 396 397 0
-269 -416 0
-269 395 396 0
269 -396 0
269 -395 416 0
-270 -272 0
270 271 272 0
-271 -272 0
-271 -395 0
271 394 395 0
-272 -418 0
-272 393 394 0
272 -394 0
272 -393 418 0
-273 -275 0
273 274 275 0
-274 -275 0
-274 -393 0
274 392 393 0
-275 -420 0
-275 391 392 0
275 -392 0
275 -391 420 0
-276 -278 0
276 277 278 0
-277 -278 0
-277 -391 0
277 390 391 0
-278 -422 0
-278 389 390 0
278 -390 0
278 -389 422 0
-279 -281 0
279 280 281 0
-280 -281 0
-280 -389 0
280 388 389 0
-281 -424 0
-281 387 388 0
281 -388 0
281 -387 424 0
-282 -284 0
282 283 284 0
-283 -284 0
-283 -387 0
283 386 387 0
-284 -426 0
-284 385 386 0
284 -386 0
284 -385 426 0
-285 -287 0
285 286 287 0
-286 -287 0
-286 -385 0
286 384 385 0
-287 -428 0
-287 383 384 0
287 -384 0
287 -383 428 0
-288 -290 0
288 289 290 0
-289 -290 0
-289 -383 0
289 382 383 0
-290 -430 0
-290 381 382 0
290 -382 0
290 -381 430 0
-291 -293 0
291 292 293 0
-292 -293 0
-292 -381 0
292 380 381 0
-293 -432 0
-293 379 380 0
293 -380 0
293 -379 432 0
-294 -296 0
294 295 296 0
-295 -296 0
-295 -379 0
295 378 379 0
-296 -434 0
-296 377 378 0
296 -378 0
296 -377 434 0
-297 -299 0
297 298 299 0
-298 -299 0
-298 -377 0
298 376 377 0
-299 -436 0
-299 375 376 0
299 -376 0
299 -375 436 0
-300 -302 0
300 301 302 0
-301 -302 0
-301 -375 0
301 374 375 0
-302 -438 0
-302 373 374 0
302 -374 0
302 -373 438 0
-303 -305 0
303 304 305 0
-304 -305 0
-304 -373 0
304 372 373 0
-305 -440 0
-305 371 372 0
305 -372 0
305 -371 440 0
-306 -308 0
306 307 308 0
-307 -308 0
-307 -371 0
307 370 371 0
-308 -442 0
-308 369 370 0
308 -370 0
308 -369 442 0
-309 -311 0
309 310 311 0
-310 -311 0
-310 -369 0
310 368 369 0
-311 -444 0
-311 367 368 0
311 -368 0
311 -367 444 0
-312 -314 0
312 313 314 0
-313 -314 0
-313 -367 0
313 366 367 0
-314 -446 0
-314 365 366 0
314 -366 0
314 -365 446 0
-315 -317 0
315 316 317 0
-316 -317 0
-316 -365 0
316 364 365 0
-317 -448 0
-317 363 364 0
317 -364 0
317 -363 448 0
-318 -320 0
318 319 320 0
-319 -320 0
-319 -363 0
319 362 363 0
-320 -450 0
-320 361 362 0
320 -362 0
320 -361 450 0
-321 -323 0
321 322 323 0
-322 -323 0
-322 -361 0
322 360 361 0
-323 -452 0
-323 359 360 0
323 -360 0
323 -359 452 0
-324 -326 0
324 325 326 0
-325 -326 0
-325 -359 0
325 358 359 0
-326 -454 0
-326 357 358 0
326 -358 0
326 -357 454 0
-327 -329 0
327 328 329 0
-328 -329 0
-328 -357 0
328 356 357 0
-329 -456 0
-329 355 356 0
329 -356 0
329 -355 456 0
-330 -332 0
330 331 332 0
-331 -332 0
-331 -355 0
331 354 355 0
-332 -458 0
-332 353 354 0
332 -354 0
332 -353 458 0
-333 -335 0
333 334 335 0
-334 -335 0
-334 -353 0
334 352 353 0
-335 -460 0
-335 351 352 0
335 -352 0
335 -351 460 0
-336 -338 0
336 337 338 0
-337 -338 0
-337 -351 0
337 350 351 0
-338 -462 0
-338 349 350 0
338 -350 0
338 -349 462 0
-339 -341 0
339 340 341 0
-340 -341 0
-340 -349 0
340 348 349 0
-341 -464 0
-341 347 348 0
341 -348 0
341 -347 464 0
-342 -344 0
342 343 344 0
-343 -344 0
-343 -347 0
343 346 347 0
-344 -466 0
-344 -345 346 0
344 -346 0
344 345 466 0
-345 -466 0
-345 -469 0
345 -346 0
345 468 469 0
-346 -347 0
-346 -467 0
346 466 467 0
-347 -348 0
347 -464 0
-348 -349 0
-348 -465 0
348 464 465 0
-349 -350 0
349 -462 0
-350 -351 0
-350 -463 0
350 462 463 0
-351 -352 0
351 -460 0
-352 -353 0
-352 -461 0
352 460 461 0
-353 -354 0
353 -458 0
-354 -355 0
-354 -459 0
354 458 459 0
-355 -356 0
355 -456 0
-356 -357 0
-356 -457 0
356 456 457 0
-357 -358 0
357 -454 0
-358 -359 0
-358 -455 0
358 454 455 0
-359 -360 0
359 -452 0
-360 -361 0
-360 -453 0
360 452 453 0
-361 -362 0
361 -450 0
-362 -363 0
-362 -451 0
362 450 451 0
-363 -364 0
363 -448 0
-364 -365 0
-364 -449 0
364 448 449 0
-365 -366 0
365 -446 0
-366 -367 0
-366 -447 0
366 446 447 0
-367 -368 0
367 -444 0
-368 -369 0
-368 -445 0
368 444 445 0
-369 -370 0
369 -442 0
-370 -371 0
-370 -443 0
370 442 443 0
-371 -372 0
371 -440 0
-372 -373 0
-372 -441 0
372 440 441 0
-373 -374 0
373 -438 0
-374 -375 0
-374 -439 0
374 438 439 0
-375 -376 0
375 -436 0
-376 -377 0
-376 -437 0
376 436 437 0
-377 -378 0
377 -434 0
-378 -379 0
-378 -435 0
378 434 435 0
-379 -380 0
379 -432 0
-380 -381 0
-380 -433 0
380 432 433 0
-381 -382 0
381 -430 0
-382 -383 0
-382 -431 0
382 430 431 0
-383 -384 0
383 -428 0
-384 -385 0
-384 -429 0
384 428 429 0
-385 -386 0
385 -426 0
-386 -387 0
-386 -427 0
386 426 427 0
-387 -388 0
387 -424 0
-388 -389 0
-388 -425 0
388 424 425 0
-389 -390 0
389 -422 0
-390 -391 0
-390 -423 0
390 422 423 0
-391 -392 0
391 -420 0
-392 -393 0
-392 -421 0
392 420 421 0
-393 -394 0
393 -418 0
-394 -395 0
-394 -419 0
394 418 419 0
-395 -396 0
395 -416 0
-396 -397 0
-396 -417 0
396 416 417 0
-397 -398 0
397 -414 0
-398 -399 0
-398 -415 0
398 414 415 0
-399 -400 0
399 -412 0
-400 -401 0
-400 -413 0
400 412 413 0
-401 -402 0
401 -410 0
-402 -403 0
-402 -411 0
402 410 411 0
-403 -404 0
403 -408 0
-404 -405 0
-404 -409 0
404 408 409 0
-405 -407 406 0
-405 407 -406 0
405 -407 -406 0
405 407 406 0
407 499 0
-408 -409 0
-409 -470 0
409 411 470 0
-410 -411 0
-411 -470 0
-412 -413 0
-413 -471 0
413 -470 471 0
-414 -415 0
-415 -472 0
415 -471 472 0
-416 -417 0
-417 -473 0
417 -472 473 0
-418 -419 0
-419 -474 0
419 -473 474 0
-420 -421 0
-421 -475 0
421 -474 475 0
-422 -423 0
-423 -476 0
423 -475 476 0
-424 -425 0
-425 -477 0
425 -476 477 0
-426 -427 0
-427 -478 0
427 -477 478 0
-428 -429 0
-429 -479 0
429 -478 479 0
-430 -431 0
-431 -480 0
431 -479 480 0
-432 -433 0
-433 -481 0
433 -480 481 0
-434 -435 0
-435 -482 0
435 -481 482 0
-436 -437 0
-437 -483 0
437 -482 483 0
-438 -439 0
-439 -484 0
439 -483 484 0
-440 -441 0
-441 -485 0
441 -484 485 0
-442 -443 0
-443 -486 0
443 -485 486 0
-444 -445 0
-445 -487 0
445 -486 487 0
-446 -447 0
-447 -488 0
447 -487 488 0
-448 -449 0
-449 -489 0
449 -488 489 0
-450 -451 0
-451 -490 0
451 -489 490 0
-452 -453 0
-453 -491 0
453 -490 491 0
-454 -455 0
-455 -492 0
455 -491 492 0
-456 -457 0
-457 -493 0
457 -492 493 0
-458 -459 0
-459 -494 0
459 -493 494 0
-460 -461 0
-461 -495 0
461 -494 495 0
-462 -463 0
-463 -496 0
463 -495 496 0
-464 -465 0
-465 -497 0
465 -496 497 0
-466 -467 0
-467 -498 0
467 -497 498 0
-468 -469 0
-469 -499 0
469 -498 499 0
470 -471 0
471 -472 0
472 -473 0
473 -474 0
474 -475 0
475 -476 0
476 -477 0
477 -478 0
478 -479 0
479 -480 0
480 -481 0
481 -482 0
482 -483 0
483 -484 0
484 -485 0
485 -486 0
486 -487 0
487 -488 0
488 -489 0
489 -490 0
490 -491 0
491 -492 0
492 -493 0
493 -494 0
494 -495 0
495 -496 0
496 -497 0
497 -498 0
498 -499 0
